<number of tasks>
89

<cycle time>
11

<task times>
1 1
2 2
3 3
4 4
5 5
6 6
7 7
8 8
9 9
10 10
11 1
12 2
13 3
14 4
15 5
16 6
17 7
18 8
19 9
20 10
21 1
22 2
23 3
24 4
25 5
26 6
27 7
28 8
29 9
30 10
31 1
32 2
33 3
34 4
35 5
36 6
37 7
38 8
39 9
40 10
41 1
42 2
43 3
44 4
45 5
46 6
47 7
48 8
49 9
50 10
51 1
52 2
53 3
54 4
55 5
56 6
57 7
58 8
59 9
60 10
61 1
62 2
63 3
64 4
65 5
66 6
67 7
68 8
69 9
70 10
71 1
72 2
73 3
74 4
75 5
76 6
77 7
78 8
79 9
80 10
81 1
82 2
83 3
84 4
85 5
86 6
87 7
88 8
89 9

<precedence relations>
1,2
2,3
3,4
4,5
4,6
4,7
4,8
4,9
5,10
6,11
7,12
8,18
9,18
10,14
11,12
12,13
13,14
14,15
14,16
15,17
16,54
17,18
18,19
18,20
19,22
20,21
20,28
21,54
22,23
23,24
24,25
25,26
25,27
25,29
26,37
27,33
28,29
29,31
30,54
31,32
32,33
33,34
34,35
35,36
35,37
36,38
37,38
38,39
39,40
39,41
39,42
39,43
40,44
41,53
42,53
43,45
44,52
45,46
46,47
47,48
47,49
49,50
50,51
51,52
52,53
53,68
53,69
53,70
53,71
54,55
55,56
56,57
57,58
57,59
57,60
57,61
57,62
57,63
57,64
57,65
57,66
58,67
59,67
60,67
61,67
62,67
63,67
64,67
65,67
66,67
67,73
68,72
69,72
70,72
71,73
72,78
72,80
73,74
74,75
74,76
75,77
76,81
77,78
78,79
79,81
80,81
81,82
81,84
81,85
82,83
83,86
84,86
85,86
86,87
87,88
87,89

<setup times forward>
1,30:1
2,30:1
3,30:1
4,7:1
4,30:1
5,7:1
5,11:1
5,12:1
5,30:1
6,7:1
6,11:1
6,30:1
7,5:1
7,6:1
7,8:1
7,9:1
7,10:1
8,7:1
8,11:1
8,12:1
8,14:1
8,15:1
8,17:1
8,30:1
9,7:1
9,11:1
9,12:1
9,14:1
9,15:1
9,17:1
9,30:1
10,7:1
10,11:1
10,12:1
10,14:1
10,30:1
11,5:1
11,8:1
11,9:1
11,10:1
12,5:1
12,8:1
12,9:1
12,10:1
12,13:1
13,14:1
13,30:1
14,8:1
14,9:1
14,16:1
15,8:1
15,9:1
15,16:1
16,15:1
16,17:1
16,19:1
16,20:1
16,21:1
16,22:1
16,26:1
16,29:1
16,30:1
16,31:1
16,32:1
16,33:1
16,37:1
16,39:1
16,41:1
16,42:1
16,43:1
16,45:1
16,46:1
16,47:1
16,48:1
16,52:1
16,69:1
16,71:1
16,72:1
16,80:1
17,8:1
17,9:1
17,16:1
17,18:1
18,19:1
18,20:1
18,30:1
19,16:1
19,28:1
19,54:1
19,55:1
19,56:1
19,57:1
19,59:1
19,63:1
19,65:1
19,66:1
19,67:1
20,16:1
20,23:1
20,24:1
20,25:1
20,27:1
20,28:1
21,16:1
21,23:1
21,24:1
21,25:1
21,27:1
21,28:1
21,34:1
21,35:1
21,36:1
21,38:1
21,40:1
21,44:1
21,49:1
21,50:1
21,51:1
21,53:1
21,54:1
21,68:1
21,70:1
22,16:1
22,23:1
22,28:1
22,54:1
22,55:1
22,56:1
22,57:1
22,59:1
22,63:1
22,65:1
22,66:1
22,67:1
23,20:1
23,21:1
23,30:1
23,58:1
23,60:1
23,61:1
23,62:1
23,64:1
24,20:1
24,21:1
24,30:1
24,58:1
24,60:1
24,61:1
24,62:1
24,64:1
25,20:1
25,21:1
25,26:1
25,29:1
25,30:1
25,58:1
25,60:1
25,61:1
25,62:1
25,64:1
26,16:1
26,27:1
26,28:1
26,34:1
26,35:1
26,36:1
26,54:1
26,55:1
26,56:1
26,57:1
26,59:1
26,63:1
26,65:1
26,66:1
26,67:1
27,20:1
27,21:1
27,26:1
27,29:1
27,30:1
27,31:1
27,32:1
27,33:1
27,58:1
27,60:1
27,61:1
27,62:1
27,64:1
28,19:1
28,21:1
28,22:1
28,26:1
28,29:1
28,30:1
28,58:1
28,60:1
28,61:1
28,62:1
28,64:1
29,16:1
29,27:1
29,54:1
29,55:1
29,56:1
29,57:1
29,59:1
29,63:1
29,65:1
29,66:1
29,67:1
30,1:1
30,2:1
30,3:1
30,4:1
30,5:1
30,6:1
30,8:1
30,9:1
30,10:1
30,13:1
30,16:1
30,18:1
30,23:1
30,24:1
30,25:1
30,27:1
30,28:1
30,34:1
30,35:1
30,36:1
30,38:1
30,40:1
30,44:1
30,49:1
30,50:1
30,51:1
30,53:1
30,54:1
30,68:1
30,70:1
31,16:1
31,27:1
31,54:1
31,55:1
31,56:1
31,57:1
31,59:1
31,63:1
31,65:1
31,66:1
31,67:1
32,16:1
32,27:1
32,54:1
32,55:1
32,56:1
32,57:1
32,59:1
32,63:1
32,65:1
32,66:1
32,67:1
33,16:1
33,34:1
33,54:1
33,55:1
33,56:1
33,57:1
33,59:1
33,63:1
33,65:1
33,66:1
33,67:1
34,21:1
34,26:1
34,30:1
34,58:1
34,60:1
34,61:1
34,62:1
34,64:1
35,21:1
35,26:1
35,30:1
35,37:1
35,58:1
35,60:1
35,61:1
35,62:1
35,64:1
36,21:1
36,26:1
36,30:1
36,37:1
36,58:1
36,60:1
36,61:1
36,62:1
36,64:1
37,16:1
37,36:1
37,38:1
37,54:1
37,55:1
37,56:1
37,57:1
37,59:1
37,63:1
37,65:1
37,66:1
37,67:1
38,21:1
38,30:1
38,39:1
38,58:1
38,60:1
38,61:1
38,62:1
38,64:1
39,16:1
39,40:1
39,54:1
39,55:1
39,56:1
39,57:1
39,59:1
39,63:1
39,65:1
39,66:1
39,67:1
40,21:1
40,30:1
40,41:1
40,42:1
40,43:1
40,45:1
40,46:1
40,47:1
40,48:1
40,58:1
40,60:1
40,61:1
40,62:1
40,64:1
41,16:1
41,40:1
41,44:1
41,49:1
41,50:1
41,51:1
41,53:1
41,54:1
41,55:1
41,56:1
41,57:1
41,59:1
41,63:1
41,65:1
41,66:1
41,67:1
42,16:1
42,40:1
42,44:1
42,49:1
42,50:1
42,51:1
42,53:1
42,54:1
42,55:1
42,56:1
42,57:1
42,59:1
42,63:1
42,65:1
42,66:1
42,67:1
43,16:1
43,40:1
43,44:1
43,54:1
43,55:1
43,56:1
43,57:1
43,59:1
43,63:1
43,65:1
43,66:1
43,67:1
44,21:1
44,30:1
44,41:1
44,42:1
44,43:1
44,45:1
44,46:1
44,47:1
44,48:1
44,52:1
44,58:1
44,60:1
44,61:1
44,62:1
44,64:1
45,16:1
45,40:1
45,44:1
45,54:1
45,55:1
45,56:1
45,57:1
45,59:1
45,63:1
45,65:1
45,66:1
45,67:1
46,16:1
46,40:1
46,44:1
46,54:1
46,55:1
46,56:1
46,57:1
46,59:1
46,63:1
46,65:1
46,66:1
46,67:1
47,16:1
47,40:1
47,44:1
47,49:1
47,54:1
47,55:1
47,56:1
47,57:1
47,59:1
47,63:1
47,65:1
47,66:1
47,67:1
48,16:1
48,40:1
48,44:1
48,49:1
48,50:1
48,51:1
48,53:1
48,54:1
48,55:1
48,56:1
48,57:1
48,59:1
48,63:1
48,65:1
48,66:1
48,67:1
48,68:1
48,70:1
48,78:1
48,79:1
48,85:1
48,86:1
49,21:1
49,30:1
49,41:1
49,42:1
49,48:1
49,58:1
49,60:1
49,61:1
49,62:1
49,64:1
50,21:1
50,30:1
50,41:1
50,42:1
50,48:1
50,58:1
50,60:1
50,61:1
50,62:1
50,64:1
51,21:1
51,30:1
51,41:1
51,42:1
51,48:1
51,52:1
51,58:1
51,60:1
51,61:1
51,62:1
51,64:1
52,16:1
52,53:1
52,54:1
52,55:1
52,56:1
52,57:1
52,59:1
52,63:1
52,65:1
52,66:1
52,67:1
53,21:1
53,30:1
53,48:1
53,58:1
53,60:1
53,61:1
53,62:1
53,64:1
53,69:1
53,71:1
54,19:1
54,22:1
54,26:1
54,29:1
54,31:1
54,32:1
54,33:1
54,37:1
54,39:1
54,41:1
54,42:1
54,43:1
54,45:1
54,46:1
54,47:1
54,48:1
54,52:1
54,69:1
54,71:1
54,72:1
54,80:1
55,19:1
55,22:1
55,26:1
55,29:1
55,31:1
55,32:1
55,33:1
55,37:1
55,39:1
55,41:1
55,42:1
55,43:1
55,45:1
55,46:1
55,47:1
55,48:1
55,52:1
55,69:1
55,71:1
55,72:1
55,80:1
56,19:1
56,22:1
56,26:1
56,29:1
56,31:1
56,32:1
56,33:1
56,37:1
56,39:1
56,41:1
56,42:1
56,43:1
56,45:1
56,46:1
56,47:1
56,48:1
56,52:1
56,69:1
56,71:1
56,72:1
56,80:1
57,19:1
57,22:1
57,26:1
57,29:1
57,31:1
57,32:1
57,33:1
57,37:1
57,39:1
57,41:1
57,42:1
57,43:1
57,45:1
57,46:1
57,47:1
57,48:1
57,52:1
57,58:1
57,60:1
57,61:1
57,62:1
57,64:1
57,69:1
57,71:1
57,72:1
57,80:1
58,23:1
58,24:1
58,25:1
58,27:1
58,28:1
58,34:1
58,35:1
58,36:1
58,38:1
58,40:1
58,44:1
58,49:1
58,50:1
58,51:1
58,53:1
58,59:1
58,63:1
58,65:1
58,66:1
58,67:1
58,68:1
58,70:1
59,19:1
59,22:1
59,26:1
59,29:1
59,31:1
59,32:1
59,33:1
59,37:1
59,39:1
59,41:1
59,42:1
59,43:1
59,45:1
59,46:1
59,47:1
59,48:1
59,52:1
59,58:1
59,60:1
59,61:1
59,62:1
59,64:1
59,69:1
59,71:1
59,72:1
59,80:1
60,23:1
60,24:1
60,25:1
60,27:1
60,28:1
60,34:1
60,35:1
60,36:1
60,38:1
60,40:1
60,44:1
60,49:1
60,50:1
60,51:1
60,53:1
60,59:1
60,63:1
60,65:1
60,66:1
60,67:1
60,68:1
60,70:1
61,23:1
61,24:1
61,25:1
61,27:1
61,28:1
61,34:1
61,35:1
61,36:1
61,38:1
61,40:1
61,44:1
61,49:1
61,50:1
61,51:1
61,53:1
61,59:1
61,63:1
61,65:1
61,66:1
61,67:1
61,68:1
61,70:1
62,23:1
62,24:1
62,25:1
62,27:1
62,28:1
62,34:1
62,35:1
62,36:1
62,38:1
62,40:1
62,44:1
62,49:1
62,50:1
62,51:1
62,53:1
62,59:1
62,63:1
62,65:1
62,66:1
62,67:1
62,68:1
62,70:1
63,19:1
63,22:1
63,26:1
63,29:1
63,31:1
63,32:1
63,33:1
63,37:1
63,39:1
63,41:1
63,42:1
63,43:1
63,45:1
63,46:1
63,47:1
63,48:1
63,52:1
63,58:1
63,60:1
63,61:1
63,62:1
63,64:1
63,69:1
63,71:1
63,72:1
63,80:1
64,23:1
64,24:1
64,25:1
64,27:1
64,28:1
64,34:1
64,35:1
64,36:1
64,38:1
64,40:1
64,44:1
64,49:1
64,50:1
64,51:1
64,53:1
64,59:1
64,63:1
64,65:1
64,66:1
64,67:1
64,68:1
64,70:1
65,19:1
65,22:1
65,26:1
65,29:1
65,31:1
65,32:1
65,33:1
65,37:1
65,39:1
65,41:1
65,42:1
65,43:1
65,45:1
65,46:1
65,47:1
65,48:1
65,52:1
65,58:1
65,60:1
65,61:1
65,62:1
65,64:1
65,69:1
65,71:1
65,72:1
65,80:1
66,19:1
66,22:1
66,26:1
66,29:1
66,31:1
66,32:1
66,33:1
66,37:1
66,39:1
66,41:1
66,42:1
66,43:1
66,45:1
66,46:1
66,47:1
66,48:1
66,52:1
66,58:1
66,60:1
66,61:1
66,62:1
66,64:1
66,69:1
66,71:1
66,72:1
66,80:1
67,19:1
67,22:1
67,26:1
67,29:1
67,31:1
67,32:1
67,33:1
67,37:1
67,39:1
67,41:1
67,42:1
67,43:1
67,45:1
67,46:1
67,47:1
67,48:1
67,52:1
67,69:1
67,71:1
67,72:1
67,73:1
67,80:1
68,21:1
68,30:1
68,48:1
68,58:1
68,60:1
68,61:1
68,62:1
68,64:1
68,69:1
68,71:1
68,72:1
68,73:1
68,74:1
68,75:1
68,76:1
68,77:1
69,16:1
69,54:1
69,55:1
69,56:1
69,57:1
69,59:1
69,63:1
69,65:1
69,66:1
69,67:1
69,68:1
69,70:1
70,21:1
70,30:1
70,48:1
70,58:1
70,60:1
70,61:1
70,62:1
70,64:1
70,69:1
70,71:1
70,72:1
70,73:1
70,74:1
70,75:1
70,76:1
70,77:1
71,16:1
71,54:1
71,55:1
71,56:1
71,57:1
71,59:1
71,63:1
71,65:1
71,66:1
71,67:1
71,68:1
71,70:1
72,16:1
72,54:1
72,55:1
72,56:1
72,57:1
72,59:1
72,63:1
72,65:1
72,66:1
72,67:1
72,78:1
73,68:1
73,70:1
74,68:1
74,70:1
75,68:1
75,70:1
76,68:1
76,70:1
76,78:1
76,79:1
77,68:1
77,70:1
77,78:1
78,48:1
78,76:1
78,80:1
79,48:1
79,76:1
79,80:1
79,81:1
80,16:1
80,54:1
80,55:1
80,56:1
80,57:1
80,59:1
80,63:1
80,65:1
80,66:1
80,67:1
80,78:1
80,79:1
81,85:1
82,85:1
83,85:1
83,86:1
84,85:1
84,86:1
85,48:1
85,82:1
85,83:1
85,84:1
86,48:1
86,87:1

<setup times backward>
1,30:1
2,30:1
3,30:1
4,30:1
5,7:1
5,11:1
5,12:1
5,30:1
6,7:1
6,30:1
8,7:1
8,11:1
8,12:1
8,14:1
8,15:1
8,17:1
8,30:1
9,7:1
9,11:1
9,12:1
9,14:1
9,15:1
9,17:1
9,30:1
10,7:1
10,11:1
10,12:1
10,30:1
13,7:1
13,11:1
13,12:1
13,30:1
16,7:1
16,11:1
16,12:1
16,14:1
16,15:1
16,17:1
16,19:1
16,20:1
16,21:1
16,22:1
16,26:1
16,29:1
16,30:1
16,31:1
16,32:1
16,33:1
16,37:1
16,39:1
16,41:1
16,42:1
16,43:1
16,45:1
16,46:1
16,47:1
16,48:1
16,52:1
16,69:1
16,71:1
16,72:1
16,80:1
18,7:1
18,11:1
18,12:1
18,14:1
18,15:1
18,17:1
18,30:1
23,7:1
23,11:1
23,12:1
23,14:1
23,15:1
23,17:1
23,19:1
23,20:1
23,21:1
23,22:1
23,30:1
23,58:1
23,60:1
23,61:1
23,62:1
23,64:1
24,7:1
24,11:1
24,12:1
24,14:1
24,15:1
24,17:1
24,19:1
24,20:1
24,21:1
24,22:1
24,30:1
24,58:1
24,60:1
24,61:1
24,62:1
24,64:1
25,7:1
25,11:1
25,12:1
25,14:1
25,15:1
25,17:1
25,19:1
25,20:1
25,21:1
25,22:1
25,30:1
25,58:1
25,60:1
25,61:1
25,62:1
25,64:1
27,7:1
27,11:1
27,12:1
27,14:1
27,15:1
27,17:1
27,19:1
27,20:1
27,21:1
27,22:1
27,26:1
27,29:1
27,30:1
27,31:1
27,32:1
27,58:1
27,60:1
27,61:1
27,62:1
27,64:1
28,7:1
28,11:1
28,12:1
28,14:1
28,15:1
28,17:1
28,19:1
28,20:1
28,21:1
28,22:1
28,26:1
28,30:1
28,58:1
28,60:1
28,61:1
28,62:1
28,64:1
34,7:1
34,11:1
34,12:1
34,14:1
34,15:1
34,17:1
34,19:1
34,20:1
34,21:1
34,22:1
34,26:1
34,29:1
34,30:1
34,31:1
34,32:1
34,33:1
34,58:1
34,60:1
34,61:1
34,62:1
34,64:1
35,7:1
35,11:1
35,12:1
35,14:1
35,15:1
35,17:1
35,19:1
35,20:1
35,21:1
35,22:1
35,26:1
35,29:1
35,30:1
35,31:1
35,32:1
35,33:1
35,58:1
35,60:1
35,61:1
35,62:1
35,64:1
36,7:1
36,11:1
36,12:1
36,14:1
36,15:1
36,17:1
36,19:1
36,20:1
36,21:1
36,22:1
36,26:1
36,29:1
36,30:1
36,31:1
36,32:1
36,33:1
36,37:1
36,58:1
36,60:1
36,61:1
36,62:1
36,64:1
38,7:1
38,11:1
38,12:1
38,14:1
38,15:1
38,17:1
38,19:1
38,20:1
38,21:1
38,22:1
38,26:1
38,29:1
38,30:1
38,31:1
38,32:1
38,33:1
38,37:1
38,58:1
38,60:1
38,61:1
38,62:1
38,64:1
40,7:1
40,11:1
40,12:1
40,14:1
40,15:1
40,17:1
40,19:1
40,20:1
40,21:1
40,22:1
40,26:1
40,29:1
40,30:1
40,31:1
40,32:1
40,33:1
40,37:1
40,39:1
40,41:1
40,42:1
40,43:1
40,45:1
40,46:1
40,47:1
40,48:1
40,58:1
40,60:1
40,61:1
40,62:1
40,64:1
44,7:1
44,11:1
44,12:1
44,14:1
44,15:1
44,17:1
44,19:1
44,20:1
44,21:1
44,22:1
44,26:1
44,29:1
44,30:1
44,31:1
44,32:1
44,33:1
44,37:1
44,39:1
44,41:1
44,42:1
44,43:1
44,45:1
44,46:1
44,47:1
44,48:1
44,58:1
44,60:1
44,61:1
44,62:1
44,64:1
49,7:1
49,11:1
49,12:1
49,14:1
49,15:1
49,17:1
49,19:1
49,20:1
49,21:1
49,22:1
49,26:1
49,29:1
49,30:1
49,31:1
49,32:1
49,33:1
49,37:1
49,39:1
49,41:1
49,42:1
49,43:1
49,45:1
49,46:1
49,47:1
49,48:1
49,58:1
49,60:1
49,61:1
49,62:1
49,64:1
50,7:1
50,11:1
50,12:1
50,14:1
50,15:1
50,17:1
50,19:1
50,20:1
50,21:1
50,22:1
50,26:1
50,29:1
50,30:1
50,31:1
50,32:1
50,33:1
50,37:1
50,39:1
50,41:1
50,42:1
50,43:1
50,45:1
50,46:1
50,47:1
50,48:1
50,58:1
50,60:1
50,61:1
50,62:1
50,64:1
51,7:1
51,11:1
51,12:1
51,14:1
51,15:1
51,17:1
51,19:1
51,20:1
51,21:1
51,22:1
51,26:1
51,29:1
51,30:1
51,31:1
51,32:1
51,33:1
51,37:1
51,39:1
51,41:1
51,42:1
51,43:1
51,45:1
51,46:1
51,47:1
51,48:1
51,58:1
51,60:1
51,61:1
51,62:1
51,64:1
53,7:1
53,11:1
53,12:1
53,14:1
53,15:1
53,17:1
53,19:1
53,20:1
53,21:1
53,22:1
53,26:1
53,29:1
53,30:1
53,31:1
53,32:1
53,33:1
53,37:1
53,39:1
53,41:1
53,42:1
53,43:1
53,45:1
53,46:1
53,47:1
53,48:1
53,52:1
53,58:1
53,60:1
53,61:1
53,62:1
53,64:1
54,7:1
54,11:1
54,12:1
54,14:1
54,15:1
54,17:1
54,19:1
54,20:1
54,21:1
54,22:1
54,26:1
54,29:1
54,30:1
54,31:1
54,32:1
54,33:1
54,37:1
54,39:1
54,41:1
54,42:1
54,43:1
54,45:1
54,46:1
54,47:1
54,48:1
54,52:1
54,69:1
54,71:1
54,72:1
54,80:1
55,7:1
55,11:1
55,12:1
55,14:1
55,15:1
55,17:1
55,19:1
55,20:1
55,21:1
55,22:1
55,26:1
55,29:1
55,30:1
55,31:1
55,32:1
55,33:1
55,37:1
55,39:1
55,41:1
55,42:1
55,43:1
55,45:1
55,46:1
55,47:1
55,48:1
55,52:1
55,69:1
55,71:1
55,72:1
55,80:1
56,7:1
56,11:1
56,12:1
56,14:1
56,15:1
56,17:1
56,19:1
56,20:1
56,21:1
56,22:1
56,26:1
56,29:1
56,30:1
56,31:1
56,32:1
56,33:1
56,37:1
56,39:1
56,41:1
56,42:1
56,43:1
56,45:1
56,46:1
56,47:1
56,48:1
56,52:1
56,69:1
56,71:1
56,72:1
56,80:1
57,7:1
57,11:1
57,12:1
57,14:1
57,15:1
57,17:1
57,19:1
57,20:1
57,21:1
57,22:1
57,26:1
57,29:1
57,30:1
57,31:1
57,32:1
57,33:1
57,37:1
57,39:1
57,41:1
57,42:1
57,43:1
57,45:1
57,46:1
57,47:1
57,48:1
57,52:1
57,69:1
57,71:1
57,72:1
57,80:1
59,7:1
59,11:1
59,12:1
59,14:1
59,15:1
59,17:1
59,19:1
59,20:1
59,21:1
59,22:1
59,26:1
59,29:1
59,30:1
59,31:1
59,32:1
59,33:1
59,37:1
59,39:1
59,41:1
59,42:1
59,43:1
59,45:1
59,46:1
59,47:1
59,48:1
59,52:1
59,58:1
59,60:1
59,61:1
59,62:1
59,64:1
59,69:1
59,71:1
59,72:1
59,80:1
63,7:1
63,11:1
63,12:1
63,14:1
63,15:1
63,17:1
63,19:1
63,20:1
63,21:1
63,22:1
63,26:1
63,29:1
63,30:1
63,31:1
63,32:1
63,33:1
63,37:1
63,39:1
63,41:1
63,42:1
63,43:1
63,45:1
63,46:1
63,47:1
63,48:1
63,52:1
63,58:1
63,60:1
63,61:1
63,62:1
63,64:1
63,69:1
63,71:1
63,72:1
63,80:1
65,7:1
65,11:1
65,12:1
65,14:1
65,15:1
65,17:1
65,19:1
65,20:1
65,21:1
65,22:1
65,26:1
65,29:1
65,30:1
65,31:1
65,32:1
65,33:1
65,37:1
65,39:1
65,41:1
65,42:1
65,43:1
65,45:1
65,46:1
65,47:1
65,48:1
65,52:1
65,58:1
65,60:1
65,61:1
65,62:1
65,64:1
65,69:1
65,71:1
65,72:1
65,80:1
66,7:1
66,11:1
66,12:1
66,14:1
66,15:1
66,17:1
66,19:1
66,20:1
66,21:1
66,22:1
66,26:1
66,29:1
66,30:1
66,31:1
66,32:1
66,33:1
66,37:1
66,39:1
66,41:1
66,42:1
66,43:1
66,45:1
66,46:1
66,47:1
66,48:1
66,52:1
66,58:1
66,60:1
66,61:1
66,62:1
66,64:1
66,69:1
66,71:1
66,72:1
66,80:1
67,7:1
67,11:1
67,12:1
67,14:1
67,15:1
67,17:1
67,19:1
67,20:1
67,21:1
67,22:1
67,26:1
67,29:1
67,30:1
67,31:1
67,32:1
67,33:1
67,37:1
67,39:1
67,41:1
67,42:1
67,43:1
67,45:1
67,46:1
67,47:1
67,48:1
67,52:1
67,58:1
67,60:1
67,61:1
67,62:1
67,64:1
67,69:1
67,71:1
67,72:1
67,80:1
68,7:1
68,11:1
68,12:1
68,14:1
68,15:1
68,17:1
68,19:1
68,20:1
68,21:1
68,22:1
68,26:1
68,29:1
68,30:1
68,31:1
68,32:1
68,33:1
68,37:1
68,39:1
68,41:1
68,42:1
68,43:1
68,45:1
68,46:1
68,47:1
68,48:1
68,52:1
68,58:1
68,60:1
68,61:1
68,62:1
68,64:1
68,69:1
68,71:1
68,73:1
68,74:1
68,75:1
68,76:1
68,77:1
70,7:1
70,11:1
70,12:1
70,14:1
70,15:1
70,17:1
70,19:1
70,20:1
70,21:1
70,22:1
70,26:1
70,29:1
70,30:1
70,31:1
70,32:1
70,33:1
70,37:1
70,39:1
70,41:1
70,42:1
70,43:1
70,45:1
70,46:1
70,47:1
70,48:1
70,52:1
70,58:1
70,60:1
70,61:1
70,62:1
70,64:1
70,69:1
70,71:1
70,73:1
70,74:1
70,75:1
70,76:1
70,77:1
78,7:1
78,11:1
78,12:1
78,14:1
78,15:1
78,17:1
78,19:1
78,20:1
78,21:1
78,22:1
78,26:1
78,29:1
78,30:1
78,31:1
78,32:1
78,33:1
78,37:1
78,39:1
78,41:1
78,42:1
78,43:1
78,45:1
78,46:1
78,47:1
78,48:1
78,52:1
78,58:1
78,60:1
78,61:1
78,62:1
78,64:1
78,69:1
78,71:1
78,72:1
78,73:1
78,74:1
78,75:1
78,76:1
78,77:1
78,80:1
79,7:1
79,11:1
79,12:1
79,14:1
79,15:1
79,17:1
79,19:1
79,20:1
79,21:1
79,22:1
79,26:1
79,29:1
79,30:1
79,31:1
79,32:1
79,33:1
79,37:1
79,39:1
79,41:1
79,42:1
79,43:1
79,45:1
79,46:1
79,47:1
79,48:1
79,52:1
79,58:1
79,60:1
79,61:1
79,62:1
79,64:1
79,69:1
79,71:1
79,72:1
79,73:1
79,74:1
79,75:1
79,76:1
79,77:1
79,80:1
85,7:1
85,11:1
85,12:1
85,14:1
85,15:1
85,17:1
85,19:1
85,20:1
85,21:1
85,22:1
85,26:1
85,29:1
85,30:1
85,31:1
85,32:1
85,33:1
85,37:1
85,39:1
85,41:1
85,42:1
85,43:1
85,45:1
85,46:1
85,47:1
85,48:1
85,52:1
85,58:1
85,60:1
85,61:1
85,62:1
85,64:1
85,69:1
85,71:1
85,72:1
85,73:1
85,74:1
85,75:1
85,76:1
85,77:1
85,80:1
85,81:1
85,82:1
85,83:1
85,84:1
86,7:1
86,11:1
86,12:1
86,14:1
86,15:1
86,17:1
86,19:1
86,20:1
86,21:1
86,22:1
86,26:1
86,29:1
86,30:1
86,31:1
86,32:1
86,33:1
86,37:1
86,39:1
86,41:1
86,42:1
86,43:1
86,45:1
86,46:1
86,47:1
86,48:1
86,52:1
86,58:1
86,60:1
86,61:1
86,62:1
86,64:1
86,69:1
86,71:1
86,72:1
86,73:1
86,74:1
86,75:1
86,76:1
86,77:1
86,80:1
86,81:1
86,82:1
86,83:1
86,84:1

<end>

<optimal SALBP-1 value>
49


<rand seed>
467321153

